c File: data_files/evolved_graphs/g0189.col
c
c Auto generated graph
c
p edge 100 1451
e 1 3
e 1 9
e 1 11
e 1 12
e 1 13
e 1 14
e 1 15
e 1 16
e 1 18
e 1 19
e 1 20
e 1 21
e 1 22
e 1 25
e 1 27
e 1 28
e 1 30
e 1 31
e 1 32
e 1 33
e 1 34
e 1 35
e 1 36
e 1 37
e 1 38
e 1 39
e 1 40
e 1 41
e 1 42
e 1 43
e 1 44
e 1 45
e 1 46
e 1 48
e 1 49
e 1 50
e 1 51
e 1 52
e 1 53
e 1 54
e 1 55
e 1 56
e 1 57
e 1 58
e 1 59
e 1 62
e 1 66
e 1 67
e 1 68
e 1 69
e 1 70
e 1 71
e 1 72
e 1 73
e 1 74
e 1 77
e 1 81
e 1 91
e 1 93
e 1 94
e 1 96
e 1 98
e 1 99
e 1 100
e 2 3
e 2 4
e 2 9
e 2 12
e 2 13
e 2 14
e 2 15
e 2 17
e 2 18
e 2 19
e 2 20
e 2 21
e 2 22
e 2 25
e 2 26
e 2 27
e 2 28
e 2 29
e 2 30
e 2 31
e 2 32
e 2 33
e 2 34
e 2 35
e 2 36
e 2 38
e 2 39
e 2 40
e 2 41
e 2 42
e 2 43
e 2 44
e 2 45
e 2 46
e 2 47
e 2 48
e 2 49
e 2 50
e 2 51
e 2 52
e 2 53
e 2 54
e 2 55
e 2 57
e 2 58
e 2 60
e 2 61
e 2 64
e 2 65
e 2 66
e 2 67
e 2 68
e 2 69
e 2 70
e 2 71
e 2 72
e 2 73
e 2 74
e 2 91
e 2 92
e 2 93
e 2 94
e 2 95
e 2 96
e 2 97
e 2 99
e 3 5
e 3 13
e 3 14
e 3 15
e 3 16
e 3 17
e 3 18
e 3 20
e 3 22
e 3 25
e 3 26
e 3 27
e 3 28
e 3 30
e 3 31
e 3 32
e 3 33
e 3 34
e 3 36
e 3 37
e 3 38
e 3 39
e 3 40
e 3 41
e 3 42
e 3 43
e 3 44
e 3 45
e 3 46
e 3 47
e 3 48
e 3 50
e 3 51
e 3 52
e 3 53
e 3 54
e 3 55
e 3 56
e 3 57
e 3 58
e 3 59
e 3 62
e 3 64
e 3 65
e 3 66
e 3 67
e 3 68
e 3 69
e 3 70
e 3 71
e 3 72
e 3 73
e 3 74
e 3 76
e 3 80
e 3 83
e 3 91
e 3 92
e 3 94
e 3 95
e 3 100
e 4 8
e 4 11
e 4 12
e 4 13
e 4 15
e 4 16
e 4 17
e 4 18
e 4 20
e 4 25
e 4 26
e 4 27
e 4 28
e 4 29
e 4 30
e 4 31
e 4 32
e 4 34
e 4 36
e 4 37
e 4 38
e 4 39
e 4 40
e 4 41
e 4 42
e 4 43
e 4 46
e 4 48
e 4 49
e 4 50
e 4 51
e 4 52
e 4 53
e 4 54
e 4 55
e 4 56
e 4 57
e 4 58
e 4 59
e 4 63
e 4 64
e 4 65
e 4 66
e 4 67
e 4 69
e 4 70
e 4 72
e 4 73
e 4 74
e 4 76
e 4 77
e 4 99
e 4 100
e 5 8
e 5 12
e 5 13
e 5 14
e 5 15
e 5 17
e 5 18
e 5 19
e 5 20
e 5 23
e 5 25
e 5 26
e 5 27
e 5 28
e 5 29
e 5 30
e 5 31
e 5 32
e 5 33
e 5 34
e 5 35
e 5 36
e 5 37
e 5 38
e 5 39
e 5 40
e 5 41
e 5 42
e 5 43
e 5 44
e 5 46
e 5 47
e 5 48
e 5 49
e 5 50
e 5 51
e 5 52
e 5 53
e 5 54
e 5 55
e 5 56
e 5 57
e 5 58
e 5 59
e 5 60
e 5 63
e 5 65
e 5 66
e 5 67
e 5 68
e 5 69
e 5 70
e 5 71
e 5 72
e 5 73
e 5 74
e 5 76
e 5 77
e 5 99
e 6 8
e 6 14
e 6 21
e 6 22
e 6 26
e 6 27
e 6 28
e 6 29
e 6 30
e 6 31
e 6 32
e 6 33
e 6 34
e 6 35
e 6 36
e 6 37
e 6 38
e 6 39
e 6 40
e 6 41
e 6 42
e 6 43
e 6 44
e 6 45
e 6 46
e 6 47
e 6 48
e 6 49
e 6 50
e 6 51
e 6 52
e 6 53
e 6 54
e 6 55
e 6 56
e 6 57
e 6 58
e 6 59
e 6 61
e 6 64
e 6 65
e 6 66
e 6 67
e 6 68
e 6 69
e 6 70
e 6 71
e 6 72
e 6 73
e 6 74
e 6 75
e 6 76
e 6 77
e 6 99
e 7 14
e 7 17
e 7 18
e 7 20
e 7 23
e 7 25
e 7 26
e 7 27
e 7 28
e 7 29
e 7 30
e 7 31
e 7 32
e 7 33
e 7 34
e 7 35
e 7 36
e 7 37
e 7 38
e 7 39
e 7 40
e 7 41
e 7 42
e 7 43
e 7 44
e 7 45
e 7 46
e 7 47
e 7 48
e 7 49
e 7 50
e 7 51
e 7 52
e 7 53
e 7 54
e 7 55
e 7 56
e 7 57
e 7 58
e 7 59
e 7 60
e 7 61
e 7 63
e 7 65
e 7 66
e 7 67
e 7 68
e 7 69
e 7 70
e 7 71
e 7 72
e 7 73
e 7 74
e 7 76
e 7 77
e 7 100
e 8 14
e 8 20
e 8 21
e 8 25
e 8 26
e 8 27
e 8 28
e 8 29
e 8 30
e 8 32
e 8 33
e 8 38
e 8 42
e 8 44
e 8 45
e 8 46
e 8 47
e 8 49
e 8 58
e 8 59
e 8 60
e 8 62
e 8 63
e 8 65
e 8 66
e 8 67
e 8 68
e 8 69
e 8 70
e 8 71
e 8 72
e 8 73
e 8 74
e 8 77
e 8 81
e 8 99
e 8 100
e 9 14
e 9 20
e 9 25
e 9 26
e 9 27
e 9 28
e 9 29
e 9 30
e 9 32
e 9 34
e 9 35
e 9 36
e 9 39
e 9 41
e 9 43
e 9 44
e 9 45
e 9 46
e 9 48
e 9 49
e 9 57
e 9 59
e 9 62
e 9 65
e 9 66
e 9 67
e 9 68
e 9 69
e 9 70
e 9 71
e 9 72
e 9 73
e 9 74
e 9 78
e 9 100
e 10 14
e 10 20
e 10 25
e 10 27
e 10 28
e 10 29
e 10 30
e 10 32
e 10 34
e 10 39
e 10 40
e 10 41
e 10 43
e 10 45
e 10 48
e 10 49
e 10 52
e 10 59
e 10 60
e 10 63
e 10 65
e 10 66
e 10 67
e 10 68
e 10 69
e 10 70
e 10 71
e 10 72
e 10 73
e 10 74
e 10 75
e 10 77
e 10 95
e 10 96
e 10 97
e 10 98
e 10 99
e 10 100
e 11 14
e 11 25
e 11 26
e 11 27
e 11 28
e 11 29
e 11 30
e 11 32
e 11 34
e 11 35
e 11 36
e 11 37
e 11 39
e 11 41
e 11 42
e 11 43
e 11 44
e 11 45
e 11 46
e 11 47
e 11 48
e 11 49
e 11 59
e 11 60
e 11 61
e 11 62
e 11 63
e 11 64
e 11 65
e 11 66
e 11 69
e 11 70
e 11 71
e 11 72
e 11 73
e 11 74
e 12 14
e 12 15
e 12 22
e 12 24
e 12 25
e 12 26
e 12 27
e 12 28
e 12 29
e 12 30
e 12 32
e 12 34
e 12 36
e 12 37
e 12 39
e 12 40
e 12 41
e 12 43
e 12 44
e 12 45
e 12 46
e 12 47
e 12 48
e 12 49
e 12 59
e 12 60
e 12 61
e 12 62
e 12 63
e 12 64
e 12 65
e 12 66
e 12 68
e 12 69
e 12 70
e 12 71
e 12 72
e 12 73
e 12 74
e 12 96
e 13 14
e 13 24
e 13 25
e 13 26
e 13 27
e 13 28
e 13 29
e 13 30
e 13 34
e 13 35
e 13 37
e 13 39
e 13 42
e 13 44
e 13 45
e 13 48
e 13 59
e 13 60
e 13 61
e 13 63
e 13 64
e 13 65
e 13 66
e 13 69
e 13 70
e 13 71
e 13 72
e 13 73
e 13 74
e 13 84
e 14 25
e 14 26
e 14 27
e 14 28
e 14 31
e 14 34
e 14 35
e 14 36
e 14 37
e 14 38
e 14 39
e 14 42
e 14 45
e 14 46
e 14 47
e 14 49
e 14 59
e 14 60
e 14 61
e 14 62
e 14 63
e 14 64
e 14 65
e 14 66
e 14 67
e 14 69
e 14 70
e 14 71
e 14 72
e 14 73
e 14 74
e 14 91
e 14 100
e 15 25
e 15 27
e 15 28
e 15 33
e 15 36
e 15 39
e 15 40
e 15 41
e 15 42
e 15 43
e 15 44
e 15 45
e 15 46
e 15 47
e 15 59
e 15 60
e 15 61
e 15 62
e 15 63
e 15 64
e 15 65
e 15 66
e 15 67
e 15 69
e 15 70
e 15 71
e 15 72
e 15 73
e 15 74
e 15 77
e 16 25
e 16 26
e 16 27
e 16 28
e 16 34
e 16 35
e 16 36
e 16 39
e 16 40
e 16 41
e 16 42
e 16 47
e 16 59
e 16 60
e 16 61
e 16 62
e 16 63
e 16 64
e 16 65
e 16 66
e 16 67
e 16 69
e 16 71
e 16 73
e 16 74
e 16 76
e 16 100
e 17 18
e 17 20
e 17 25
e 17 26
e 17 27
e 17 28
e 17 29
e 17 32
e 17 35
e 17 36
e 17 37
e 17 42
e 17 43
e 17 45
e 17 47
e 17 48
e 17 49
e 17 59
e 17 60
e 17 61
e 17 62
e 17 63
e 17 64
e 17 65
e 17 66
e 17 67
e 17 69
e 17 70
e 17 71
e 17 72
e 17 73
e 17 74
e 18 25
e 18 26
e 18 27
e 18 28
e 18 31
e 18 35
e 18 36
e 18 38
e 18 39
e 18 40
e 18 41
e 18 42
e 18 43
e 18 45
e 18 46
e 18 48
e 18 59
e 18 60
e 18 62
e 18 63
e 18 64
e 18 65
e 18 66
e 18 67
e 18 68
e 18 69
e 18 70
e 18 71
e 18 72
e 18 73
e 18 74
e 18 76
e 18 78
e 18 97
e 19 25
e 19 26
e 19 27
e 19 28
e 19 31
e 19 33
e 19 35
e 19 36
e 19 37
e 19 38
e 19 39
e 19 40
e 19 41
e 19 42
e 19 43
e 19 44
e 19 45
e 19 46
e 19 47
e 19 48
e 19 49
e 19 50
e 19 51
e 19 52
e 19 53
e 19 54
e 19 55
e 19 56
e 19 57
e 19 58
e 19 59
e 19 60
e 19 61
e 19 62
e 19 63
e 19 64
e 19 65
e 19 66
e 19 69
e 19 76
e 19 95
e 19 96
e 19 97
e 19 100
e 20 24
e 20 25
e 20 26
e 20 27
e 20 28
e 20 31
e 20 32
e 20 33
e 20 34
e 20 41
e 20 44
e 20 45
e 20 46
e 20 47
e 20 48
e 20 49
e 20 50
e 20 51
e 20 52
e 20 53
e 20 54
e 20 56
e 20 57
e 20 58
e 20 59
e 20 60
e 20 61
e 20 62
e 20 63
e 20 64
e 20 65
e 20 67
e 20 72
e 20 95
e 20 97
e 21 24
e 21 25
e 21 26
e 21 27
e 21 28
e 21 29
e 21 31
e 21 32
e 21 33
e 21 34
e 21 41
e 21 42
e 21 43
e 21 44
e 21 45
e 21 46
e 21 47
e 21 48
e 21 49
e 21 50
e 21 51
e 21 52
e 21 53
e 21 54
e 21 55
e 21 56
e 21 57
e 21 59
e 21 60
e 21 61
e 21 62
e 21 63
e 21 64
e 21 65
e 21 66
e 21 67
e 21 68
e 21 69
e 21 70
e 21 71
e 21 74
e 21 82
e 21 83
e 21 95
e 21 96
e 21 97
e 22 24
e 22 25
e 22 26
e 22 27
e 22 28
e 22 31
e 22 32
e 22 33
e 22 34
e 22 42
e 22 43
e 22 44
e 22 45
e 22 46
e 22 47
e 22 48
e 22 49
e 22 50
e 22 51
e 22 52
e 22 53
e 22 54
e 22 55
e 22 56
e 22 57
e 22 58
e 22 59
e 22 60
e 22 61
e 22 62
e 22 63
e 22 64
e 22 65
e 22 66
e 22 67
e 22 68
e 22 69
e 22 71
e 22 73
e 23 24
e 23 25
e 23 26
e 23 27
e 23 28
e 23 29
e 23 30
e 23 31
e 23 32
e 23 33
e 23 34
e 23 35
e 23 36
e 23 37
e 23 38
e 23 39
e 23 40
e 23 41
e 23 42
e 23 43
e 23 45
e 23 47
e 23 48
e 23 49
e 23 50
e 23 51
e 23 52
e 23 53
e 23 54
e 23 55
e 23 56
e 23 57
e 23 58
e 23 59
e 23 60
e 23 61
e 23 62
e 23 63
e 23 64
e 23 65
e 23 66
e 23 67
e 23 69
e 23 70
e 23 71
e 23 74
e 23 87
e 24 25
e 24 26
e 24 27
e 24 28
e 24 29
e 24 30
e 24 31
e 24 32
e 24 33
e 24 34
e 24 35
e 24 36
e 24 37
e 24 38
e 24 39
e 24 40
e 24 41
e 24 42
e 24 43
e 24 44
e 24 45
e 24 46
e 24 47
e 24 48
e 24 49
e 24 50
e 24 51
e 24 52
e 24 53
e 24 54
e 24 55
e 24 56
e 24 57
e 24 59
e 24 60
e 24 61
e 24 62
e 24 63
e 24 64
e 24 65
e 25 31
e 25 32
e 25 33
e 25 34
e 25 79
e 25 80
e 25 81
e 25 82
e 25 83
e 25 84
e 25 85
e 25 86
e 25 96
e 26 31
e 26 32
e 26 33
e 26 34
e 26 70
e 26 79
e 26 80
e 26 81
e 26 82
e 26 83
e 26 84
e 26 85
e 26 86
e 26 96
e 27 31
e 27 32
e 27 33
e 27 34
e 27 79
e 27 80
e 27 81
e 27 82
e 27 83
e 27 84
e 27 85
e 27 86
e 28 79
e 28 80
e 28 81
e 28 82
e 28 83
e 28 84
e 28 85
e 28 86
e 29 79
e 29 80
e 29 81
e 29 82
e 29 83
e 29 84
e 29 85
e 29 86
e 30 54
e 30 79
e 30 80
e 30 81
e 30 82
e 30 83
e 30 84
e 30 85
e 30 86
e 32 69
e 32 96
e 33 70
e 33 71
e 33 76
e 33 77
e 33 97
e 33 98
e 33 99
e 33 100
e 34 98
e 34 100
e 35 95
e 35 98
e 35 99
e 37 99
e 37 100
e 38 91
e 38 99
e 38 100
e 40 100
e 41 94
e 41 98
e 41 100
e 42 72
e 42 73
e 42 74
e 42 75
e 42 76
e 42 77
e 42 78
e 42 79
e 42 80
e 42 81
e 43 72
e 43 73
e 43 74
e 43 75
e 43 76
e 43 77
e 43 78
e 43 79
e 43 80
e 43 81
e 44 69
e 44 72
e 44 73
e 44 74
e 44 75
e 44 76
e 44 77
e 44 78
e 44 79
e 44 80
e 44 81
e 44 99
e 44 100
e 45 72
e 45 73
e 45 74
e 45 75
e 45 76
e 45 77
e 45 78
e 45 79
e 45 80
e 45 81
e 45 91
e 45 95
e 46 72
e 46 73
e 46 74
e 46 75
e 46 76
e 46 77
e 46 78
e 46 79
e 46 80
e 46 81
e 46 95
e 46 97
e 46 100
e 47 69
e 47 72
e 47 73
e 47 74
e 47 75
e 47 76
e 47 77
e 47 78
e 47 79
e 47 80
e 47 81
e 48 72
e 48 73
e 48 74
e 48 75
e 48 76
e 48 77
e 48 78
e 48 79
e 48 80
e 48 81
e 48 98
e 49 72
e 49 73
e 49 74
e 49 75
e 49 76
e 49 77
e 49 78
e 49 79
e 49 80
e 49 81
e 49 98
e 50 72
e 50 73
e 50 74
e 50 75
e 50 76
e 50 77
e 50 78
e 50 79
e 50 80
e 50 81
e 50 100
e 51 72
e 51 73
e 51 74
e 51 75
e 51 76
e 51 77
e 51 78
e 51 79
e 51 80
e 51 81
e 51 100
e 52 72
e 52 73
e 52 74
e 52 75
e 52 76
e 52 77
e 52 78
e 52 79
e 52 80
e 52 81
e 52 100
e 53 72
e 53 73
e 53 74
e 53 75
e 53 76
e 53 77
e 53 78
e 53 79
e 53 80
e 53 81
e 54 62
e 54 78
e 54 79
e 54 80
e 54 81
e 54 82
e 54 83
e 54 100
e 55 78
e 55 79
e 55 80
e 55 81
e 55 82
e 55 83
e 56 78
e 56 79
e 56 80
e 56 82
e 56 83
e 56 100
e 57 78
e 57 79
e 57 80
e 57 82
e 57 100
e 58 78
e 58 79
e 58 80
e 58 82
e 58 83
e 59 78
e 59 79
e 59 80
e 59 82
e 59 83
e 60 78
e 60 79
e 60 80
e 60 82
e 60 83
e 61 78
e 61 79
e 61 80
e 61 82
e 61 83
e 62 78
e 62 79
e 62 80
e 62 81
e 62 82
e 62 83
e 63 78
e 63 79
e 63 80
e 63 81
e 63 82
e 63 83
e 64 78
e 64 79
e 64 80
e 64 81
e 64 82
e 64 83
e 65 78
e 65 79
e 65 80
e 65 81
e 65 82
e 65 83
e 66 78
e 66 79
e 66 80
e 66 81
e 66 82
e 66 83
e 67 78
e 67 79
e 67 81
e 67 82
e 67 83
e 68 81
e 68 82
e 68 83
e 69 78
e 69 79
e 69 80
e 69 81
e 69 82
e 69 83
e 69 100
e 70 78
e 70 79
e 70 80
e 70 81
e 70 82
e 70 83
e 70 89
e 71 78
e 71 79
e 71 80
e 71 81
e 71 82
e 71 83
e 72 78
e 72 79
e 72 80
e 72 81
e 72 82
e 72 83
e 73 78
e 73 79
e 73 80
e 73 81
e 73 82
e 73 83
e 73 91
e 74 78
e 74 79
e 74 80
e 74 81
e 74 82
e 74 83
e 75 78
e 75 79
e 75 80
e 75 81
e 75 82
e 75 83
e 75 96
e 76 78
e 76 79
e 76 80
e 76 81
e 76 82
e 76 83
e 77 78
e 77 79
e 77 80
e 77 81
e 77 82
e 77 83
e 78 83
e 79 83
e 80 83
e 81 83
e 82 83
e 82 88
e 83 95
e 84 92
e 84 93
e 84 94
e 84 95
e 84 96
e 84 97
e 84 98
e 84 99
e 85 86
e 85 87
e 85 88
e 85 89
e 85 90
e 85 91
e 85 92
e 85 93
e 85 95
e 85 96
e 86 94
e 87 92
e 87 93
e 87 94
e 87 95
e 87 96
e 88 92
e 88 93
e 88 94
e 88 96
e 89 91
e 89 92
e 89 93
e 89 94
e 89 95
e 89 96
e 90 92
e 90 93
e 90 94
e 90 95
e 90 96
e 90 100
e 91 92
e 91 93
e 91 94
e 91 95
e 91 96
